
Gurobi 6.5.2 (linux64) logging started Wed Mar 15 12:48:53 2017


Gurobi 6.5.2 (linux64) logging started Wed Mar 15 12:48:53 2017

Optimize a model with 101 rows, 908 columns and 2105 nonzeros
Coefficient statistics:
  Matrix range    [1e+00, 2e+00]
  Objective range [1e+00, 1e+02]
  Bounds range    [1e+00, 1e+00]
  RHS range       [1e+00, 1e+00]
Found heuristic solution: objective 1104
Presolve removed 30 rows and 2 columns
Presolve time: 0.00s
Presolved: 71 rows, 906 columns, 1887 nonzeros
Variable types: 0 continuous, 906 integer (906 binary)

Root relaxation: objective 4.007500e+02, 58 iterations, 0.00 seconds

    Nodes    |    Current Node    |     Objective Bounds      |     Work
 Expl Unexpl |  Obj  Depth IntInf | Incumbent    BestBd   Gap | It/Node Time

     0     0  400.75000    0   17 1104.00000  400.75000  63.7%     -    0s
     0     0  424.25000    0   18 1104.00000  424.25000  61.6%     -    0s
     0     0  432.66667    0   26 1104.00000  432.66667  60.8%     -    0s
     0     0  433.80000    0   28 1104.00000  433.80000  60.7%     -    0s
     0     0  433.80000    0   28 1104.00000  433.80000  60.7%     -    0s
     0     2  433.80000    0   28 1104.00000  433.80000  60.7%     -    0s
*  570   415              65     631.0000000  442.00000  30.0%   2.5    0s
*  586   413              70     608.0000000  442.80000  27.2%   2.5    0s
*  723   416              49     537.0000000  444.40000  17.2%   2.6    0s
H 1255   798                     490.0000000  446.00000  8.98%   2.5    0s
H 1267   766                     487.0000000  448.33095  7.94%   2.6    0s
 10706  5844  473.18852   66   28  487.00000  458.60526  5.83%   4.0    6s

Cutting planes:
  Gomory: 19
  Cover: 44
  Flow cover: 5
  Zero half: 12
  Lazy constraints: 34

Explored 10726 nodes (42945 simplex iterations) in 10.01 seconds
Thread count was 8 (of 8 available processors)

Time limit reached
Best objective 4.870000000000e+02, best bound 4.590000000000e+02, gap 5.7495%
